NAME: R12-120518-005446.tsp
TYPE: TSP
COMMENT: Random data
DIMENSION: 12
EDGE_WEIGHT_TYPE: EXPLICIT
EDGE_WEIGHT_FORMAT: FULL_MATRIX
DISPLAY_DATA_TYPE: NO_DISPLAY
EDGE_WEIGHT_SECTION
 0 17 16 13 19 18 66 55  5 95 62 13 
54  0 41 26 72 57 85 52 40 74 41 76 
39 27  0 73  8 43 27 27 57 58 35 25 
56 95 11  0 86 29 63 18 51  7 46 16 
45 12 66 44  0  3 94 76 38 50 92 99 
41 77 86 46  9  0 23 28 77 38  4 77 
29 84 31 60 71 56  0 88 22 22 33 29 
22 81 61 42 99 23 33  0 80 19 85 32 
56 53 34  0 82 54 95 22  0 29  8 12 
68 82 82 12 42 23 20 49 28  0 69 65 
11 54  4 85 67 23  4 44 57 84  0 92 
96 27 77 26 70 74 34 27  0  3 20  0 
EOF